W=10;
H=7;

MAX_TIME=43;
MAX_TRACKS=26;

TARGET=(4,10);

TRAINS=[(6,9,LEFT),(4,9,LEFT),(2,9,LEFT)];
DECOYS=[];

INIT_POS=[
(2,3,STRAIGHT_RL),
(2,9,STRAIGHT_RL),
(3,3,ROCK),
(3,4,ROCK),
(3,6,ROCK),
(3,8,ROCK),
(4,4,STRAIGHT_RL),
(4,6,ROCK),
(4,9,STRAIGHT_RL),
(4,10,STRAIGHT_RL),
(5,3,ROCK),
(5,6,ROCK),
(6,3,STRAIGHT_RL),
(6,9,STRAIGHT_RL),
];
TUNNEL_PAIRS=[];

GATES=[];
ACTIVATIONS=[];

DSWITCHES=[];
STATIONS=[
  (2,3,3),
  (4,4,1),
  (6,3,2),
];
